NAME: I993-n29-k6
COMMENT : (Fake et al, No of trucks: 6, Optimal value: )
TYPE : CVRP
DIMENSION : 29
EDGE_WEIGHT_TYPE : EUC_2D
CAPACITY : 20
NODE_COORD_SECTION
1 472 190
2 924 943
3 804 71
4 314 97
5 999 578
6 225 336
7 711 719
8 0 667
9 135 563
10 79 515
11 983 759
12 508 228
13 49 383
14 710 845
15 293 468
16 830 561
17 254 460
18 316 788
19 606 811
20 519 736
21 428 479
22 470 727
23 432 254
24 137 769
25 913 271
26 367 170
27 346 483
28 347 482
29 847 124
DEMAND_SECTION
1 0
2 2
3 6
4 7
5 4
6 1
7 3
8 2
9 4
10 2
11 2
12 3
13 2
14 5
15 3
16 5
17 4
18 3
19 7
20 6
21 4
22 7
23 6
24 3
25 6
26 6
27 4
28 2
29 2
DEPOT_SECTION
 1
 -1
 EOF 